c description: Random 3-CNF over 15 variables and 75 clauses
p cnf 15 75
-1 2 6 0
2 -9 15 0
-11 13 15 0
7 -12 -15 0
2 -6 -7 0
3 -4 -5 0
4 8 13 0
5 11 12 0
4 -8 13 0
-1 -4 -10 0
-3 -4 6 0
-2 5 11 0
2 -4 15 0
4 5 15 0
-4 12 15 0
2 5 15 0
1 3 -7 0
6 -7 14 0
2 8 15 0
2 12 -13 0
-1 -4 -14 0
-2 4 12 0
-5 -6 15 0
-2 6 -8 0
12 -14 15 0
-2 -6 11 0
-1 5 6 0
2 -4 13 0
-1 -4 8 0
5 -9 -10 0
1 -3 -10 0
8 14 15 0
-1 -6 15 0
8 12 -13 0
3 6 -14 0
3 8 10 0
3 -4 11 0
1 2 3 0
-3 -13 -15 0
-1 -10 -12 0
-1 -9 13 0
3 4 14 0
4 11 14 0
-10 12 15 0
-6 11 -12 0
-4 -6 -8 0
-4 -6 -7 0
4 5 -10 0
5 9 13 0
-7 -10 14 0
4 -12 13 0
-1 -2 3 0
7 12 13 0
-7 -8 -10 0
-9 10 13 0
1 6 13 0
-8 -11 14 0
-1 -4 -6 0
-4 11 -14 0
-3 -10 12 0
-2 7 -13 0
-7 14 15 0
-2 -6 12 0
2 5 6 0
-9 -13 14 0
6 7 10 0
3 -5 12 0
-7 -8 12 0
-6 13 -14 0
7 -11 12 0
-1 -5 -9 0
-7 -11 15 0
-3 -8 -11 0
3 9 11 0
2 5 7 0